N = 5;
H = 5;
T = 2;

avail = array3d(1..N, 1..H, 1..T, [9, 7, 9, 1, 4, 7, 1, 8, 1, 1, 2, 9, 1, 3, 3, 2, 2, 8, 10, 8, 5, 4, 3, 9, 2, 6, 5, 6, 3, 7, 6, 7, 9, 9, 4, 0, 6, 6, 6, 5, 3, 8, 6, 8, 10, 6, 5, 5, 5, 3]);

r = array2d(1..H, 1..T, [1, 2, 2, 0, 2, 0, 0, 0, 0, 1]);
